80
1273
10
82
49
28
66
17
62
6
20
10
79
0 1
0 3
0 4
0 5
0 6
0 8
0 12
0 16
0 19
0 22
0 23
0 25
0 28
0 33
0 34
0 36
0 37
0 38
0 39
0 41
0 42
0 43
0 45
0 51
0 52
0 58
0 62
0 64
0 65
0 66
0 69
0 70
0 71
0 72
0 73
0 76
0 77
0 78
1 2
1 8
1 12
1 17
1 18
1 23
1 27
1 28
1 32
1 33
1 36
1 37
1 38
1 39
1 44
1 46
1 58
1 60
1 66
1 68
1 70
1 71
1 74
1 77
1 78
1 79
2 5
2 7
2 9
2 14
2 16
2 17
2 19
2 20
2 22
2 25
2 26
2 27
2 30
2 31
2 32
2 37
2 38
2 41
2 42
2 46
2 51
2 53
2 56
2 63
2 66
2 67
2 74
2 77
2 79
3 9
3 10
3 12
3 15
3 17
3 18
3 25
3 26
3 27
3 30
3 31
3 32
3 33
3 34
3 35
3 36
3 37
3 40
3 41
3 42
3 44
3 48
3 55
3 60
3 63
3 66
3 70
3 75
3 76
3 77
4 6
4 7
4 9
4 10
4 13
4 15
4 19
4 20
4 24
4 28
4 32
4 34
4 35
4 37
4 38
4 43
4 46
4 49
4 50
4 51
4 55
4 60
4 61
4 62
4 63
4 64
4 67
4 68
4 70
4 71
4 72
4 74
4 78
5 7
5 11
5 13
5 14
5 15
5 18
5 20
5 21
5 22
5 24
5 26
5 28
5 31
5 32
5 33
5 34
5 36
5 37
5 38
5 39
5 40
5 45
5 48
5 50
5 51
5 53
5 55
5 56
5 58
5 62
5 67
5 71
5 75
5 78
5 79
6 8
6 15
6 16
6 17
6 18
6 22
6 23
6 24
6 30
6 32
6 34
6 37
6 39
6 42
6 43
6 48
6 53
6 55
6 59
6 60
6 61
6 62
6 63
6 68
6 70
6 73
6 74
6 75
6 77
7 9
7 11
7 12
7 14
7 15
7 16
7 19
7 20
7 22
7 26
7 29
7 33
7 35
7 38
7 40
7 42
7 44
7 47
7 50
7 51
7 55
7 58
7 59
7 61
7 65
7 69
7 70
7 77
8 9
8 10
8 13
8 15
8 16
8 18
8 21
8 22
8 23
8 28
8 31
8 32
8 33
8 34
8 35
8 41
8 43
8 44
8 53
8 54
8 59
8 61
8 62
8 65
8 66
8 68
8 78
9 10
9 11
9 14
9 15
9 17
9 21
9 22
9 27
9 33
9 35
9 40
9 43
9 44
9 46
9 49
9 52
9 54
9 55
9 56
9 59
9 60
9 61
9 64
9 65
9 68
9 69
9 71
9 75
9 78
10 12
10 13
10 14
10 20
10 24
10 30
10 31
10 35
10 38
10 40
10 44
10 45
10 50
10 56
10 57
10 59
10 62
10 65
10 69
10 70
10 76
11 12
11 15
11 16
11 18
11 19
11 20
11 22
11 24
11 25
11 28
11 35
11 38
11 42
11 48
11 50
11 51
11 53
11 65
11 73
11 74
11 77
11 79
12 13
12 14
12 18
12 20
12 22
12 23
12 27
12 31
12 32
12 33
12 35
12 37
12 38
12 42
12 46
12 47
12 55
12 56
12 58
12 59
12 60
12 63
12 64
12 67
12 68
12 70
12 75
13 19
13 22
13 23
13 24
13 28
13 33
13 36
13 37
13 38
13 39
13 41
13 47
13 53
13 56
13 59
13 60
13 64
13 68
13 69
13 70
13 72
13 73
13 74
13 76
14 17
14 24
14 26
14 28
14 31
14 38
14 42
14 43
14 51
14 53
14 55
14 56
14 57
14 58
14 60
14 61
14 62
14 67
14 68
14 71
14 77
14 78
15 20
15 21
15 23
15 25
15 26
15 31
15 32
15 35
15 37
15 38
15 40
15 43
15 46
15 49
15 51
15 54
15 57
15 58
15 60
15 61
15 63
15 64
15 66
15 70
15 73
16 20
16 22
16 24
16 25
16 28
16 30
16 33
16 34
16 36
16 37
16 38
16 40
16 43
16 45
16 50
16 52
16 53
16 57
16 68
16 69
16 70
16 71
16 72
16 75
17 18
17 21
17 26
17 31
17 34
17 36
17 43
17 46
17 53
17 54
17 55
17 59
17 60
17 64
17 67
17 68
17 69
17 75
17 76
17 78
17 79
18 20
18 22
18 27
18 28
18 35
18 38
18 40
18 41
18 42
18 43
18 44
18 50
18 53
18 54
18 57
18 60
18 65
18 68
18 73
18 74
18 79
19 20
19 22
19 25
19 26
19 27
19 28
19 34
19 35
19 36
19 39
19 42
19 43
19 44
19 48
19 49
19 50
19 52
19 59
19 71
19 72
19 73
19 78
19 79
20 25
20 29
20 33
20 36
20 37
20 38
20 41
20 43
20 44
20 48
20 51
20 54
20 59
20 60
20 61
20 62
20 66
20 68
20 72
20 77
21 24
21 25
21 33
21 36
21 38
21 47
21 48
21 49
21 50
21 54
21 55
21 60
21 63
21 66
21 67
21 68
21 70
21 72
21 73
21 75
21 76
21 77
21 79
22 28
22 29
22 30
22 33
22 34
22 36
22 37
22 38
22 41
22 43
22 45
22 54
22 56
22 65
22 68
22 69
22 73
22 78
22 79
23 25
23 29
23 38
23 39
23 42
23 47
23 51
23 53
23 54
23 59
23 60
23 70
23 71
23 72
23 74
23 75
23 77
24 25
24 27
24 30
24 33
24 36
24 41
24 53
24 60
24 61
24 62
24 63
24 65
24 70
24 72
24 74
24 75
24 78
24 79
25 27
25 28
25 29
25 32
25 33
25 40
25 42
25 44
25 47
25 48
25 49
25 50
25 53
25 55
25 59
25 62
25 64
25 65
25 69
25 70
25 71
25 73
25 74
25 77
25 78
26 27
26 30
26 33
26 34
26 36
26 38
26 39
26 46
26 47
26 49
26 50
26 53
26 54
26 57
26 61
26 64
26 65
26 72
26 75
26 78
27 28
27 29
27 33
27 36
27 41
27 44
27 45
27 46
27 48
27 49
27 50
27 51
27 57
27 61
27 62
27 68
27 69
27 74
28 29
28 32
28 36
28 39
28 41
28 43
28 44
28 48
28 52
28 53
28 55
28 57
28 63
28 64
28 65
28 66
28 68
28 69
28 74
28 76
29 30
29 31
29 32
29 37
29 38
29 40
29 47
29 48
29 50
29 51
29 60
29 63
29 73
29 75
29 76
29 77
29 79
30 31
30 34
30 37
30 38
30 41
30 42
30 43
30 48
30 49
30 51
30 53
30 56
30 61
30 62
30 68
30 69
30 72
30 74
30 77
30 78
31 33
31 34
31 35
31 37
31 38
31 41
31 42
31 43
31 45
31 48
31 49
31 54
31 55
31 58
31 59
31 60
31 61
31 64
31 65
31 67
31 68
31 69
31 70
31 73
31 74
31 77
31 78
31 79
32 35
32 38
32 39
32 45
32 48
32 51
32 54
32 57
32 60
32 70
32 71
32 73
32 74
32 76
33 34
33 38
33 40
33 42
33 43
33 45
33 46
33 47
33 50
33 55
33 56
33 58
33 60
33 61
33 63
33 64
33 65
33 66
33 67
33 68
33 69
33 73
33 77
33 78
34 36
34 39
34 41
34 43
34 46
34 49
34 50
34 53
34 60
34 62
34 63
34 64
34 68
34 70
34 71
34 73
34 79
35 38
35 39
35 43
35 44
35 45
35 49
35 50
35 52
35 55
35 58
35 60
35 61
35 70
35 72
35 74
35 76
35 77
35 78
36 40
36 46
36 47
36 48
36 50
36 51
36 54
36 56
36 58
36 59
36 62
36 64
36 65
36 69
36 74
36 75
36 76
36 77
37 39
37 40
37 41
37 42
37 43
37 45
37 47
37 50
37 51
37 52
37 54
37 55
37 56
37 57
37 60
37 62
37 65
37 68
37 69
37 70
37 74
37 75
37 77
37 78
38 39
38 42
38 46
38 48
38 49
38 54
38 61
38 62
38 63
38 64
38 68
38 69
38 70
38 72
38 76
38 78
39 40
39 41
39 43
39 45
39 47
39 56
39 59
39 62
39 64
39 65
39 67
39 76
39 77
39 78
39 79
40 41
40 43
40 44
40 46
40 47
40 48
40 49
40 53
40 55
40 56
40 58
40 68
40 70
40 74
40 75
40 76
40 77
40 78
41 45
41 46
41 47
41 49
41 51
41 52
41 53
41 54
41 56
41 57
41 61
41 62
41 65
41 66
41 67
41 76
41 78
42 43
42 49
42 52
42 56
42 60
42 62
42 63
42 68
42 69
42 70
42 71
42 72
42 78
43 46
43 48
43 49
43 50
43 53
43 54
43 56
43 58
43 59
43 61
43 63
43 65
43 68
43 71
43 72
43 73
43 74
43 75
43 77
44 46
44 47
44 48
44 51
44 55
44 56
44 57
44 59
44 60
44 61
44 64
44 68
44 71
44 73
44 74
44 76
45 47
45 48
45 52
45 54
45 55
45 65
45 66
45 67
45 73
45 75
45 77
46 49
46 54
46 57
46 58
46 60
46 63
46 64
46 66
46 67
46 69
46 70
46 71
46 73
46 74
46 76
46 78
47 48
47 54
47 55
47 58
47 61
47 62
47 64
47 65
47 70
47 71
47 72
47 73
47 74
47 76
48 54
48 57
48 59
48 61
48 63
48 64
48 65
48 66
48 68
48 72
48 73
48 74
48 75
48 76
49 50
49 52
49 54
49 55
49 56
49 58
49 65
49 67
49 72
49 74
49 78
50 51
50 52
50 55
50 56
50 57
50 58
50 59
50 63
50 65
50 66
50 67
50 72
50 75
50 78
50 79
51 55
51 57
51 61
51 63
51 64
51 65
51 68
51 69
51 73
51 74
51 75
51 76
52 54
52 57
52 63
52 65
52 66
52 74
52 75
52 77
52 79
53 60
53 61
53 64
53 68
53 69
53 70
53 71
53 72
53 74
53 75
53 76
53 77
53 78
53 79
54 56
54 57
54 58
54 59
54 61
54 64
54 65
54 67
54 68
54 69
54 72
54 74
54 75
54 76
54 77
55 58
55 59
55 61
55 63
55 64
55 66
55 67
55 74
55 76
55 77
56 57
56 59
56 60
56 61
56 64
56 69
56 71
56 72
56 76
57 58
57 59
57 62
57 66
57 67
57 68
57 72
57 73
57 75
57 76
57 77
57 79
58 60
58 61
58 62
58 63
58 71
58 72
58 75
58 76
58 77
59 64
59 68
59 69
59 71
59 72
59 75
59 76
59 77
59 79
60 61
60 62
60 65
60 66
60 67
60 70
60 72
60 74
60 75
60 76
60 77
60 78
60 79
61 63
61 64
61 66
61 67
61 68
61 71
61 76
61 78
61 79
62 63
62 66
62 67
62 69
62 76
62 77
62 79
63 65
63 66
63 67
63 68
63 69
63 74
63 75
63 79
64 67
64 69
64 72
64 79
65 69
65 71
65 72
65 73
65 74
65 76
65 78
66 67
66 68
66 69
66 70
66 74
66 75
66 78
66 79
67 71
67 73
67 75
67 76
68 72
68 73
68 74
68 77
68 78
69 71
69 72
69 73
69 74
69 75
69 78
70 76
70 77
70 78
71 79
72 73
72 74
72 75
72 76
73 76
73 79
75 76
75 77
75 78
77 78
44 11 62 79 76 17 66 40
30 57 19 52 37 55 50 20
63 47 51 13 77 8 22 24
45 54 14 0 48 60 46 12
4 67 10 49 39 43 56 31
68 59 70 73 35 64 34 65
53 16 58 21 26 33 2 25
41 36 75 69 3 38 71 42
78 9 61 6 5 29 72 23
1 74 18 7 32 15 27 28
